\* Credit_Limit_Optimization *\
Maximize
Exp_Revenue_Objective: 0.00151783 In_('S0',_'L',_1.0)
 + 0.02291649 In_('S0',_'L',_10.0) + 0.04393778 In_('S0',_'L',_100.0)
 + 0.00596649 In_('S0',_'L',_3.0) + 0.06836321 In_('S0',_'L',_50.0)
 + 0.07986711 In_('S0',_'L',_9999.0) + 0.00103217 In_('S0',_'M',_1.0)
 + 0.01596339 In_('S0',_'M',_10.0) + 0.023671 In_('S0',_'M',_100.0)
 + 0.00384379 In_('S0',_'M',_3.0) + 0.05272449 In_('S0',_'M',_50.0)
 + 0.06625811 In_('S0',_'M',_9999.0) + 0.0004375 In_('S1',_'L',_1.0)
 + 0.00594361 In_('S1',_'L',_10.0) + 0.00111825 In_('S1',_'L',_100.0)
 + 0.00170807 In_('S1',_'L',_3.0) + 0.01123208 In_('S1',_'L',_50.0)
 + 0.0092225 In_('S1',_'L',_9999.0) + 0.00160975 In_('S1',_'M',_1.0)
 + 0.01710145 In_('S1',_'M',_10.0) + 0.01720743 In_('S1',_'M',_100.0)
 + 0.00503756 In_('S1',_'M',_3.0) + 0.04707952 In_('S1',_'M',_50.0)
 + 0.02270819 In_('S1',_'M',_9999.0) + 0.00040169 In_('S2',_'L',_1.0)
 + 0.00616224 In_('S2',_'L',_10.0) + 0.00213495 In_('S2',_'L',_100.0)
 + 0.00117083 In_('S2',_'L',_3.0) + 0.00999626 In_('S2',_'L',_50.0)
 + 0.00387941 In_('S2',_'M',_1.0) + 0.0473775 In_('S2',_'M',_10.0)
 + 0.05273205 In_('S2',_'M',_100.0) + 0.01375956 In_('S2',_'M',_3.0)
 + 0.11558868 In_('S2',_'M',_50.0) + 0.03053496 In_('S2',_'M',_9999.0)
 + 0.00145256 In_('S3',_'H',_1.0) + 0.02206172 In_('S3',_'H',_10.0)
 + 0.01916764 In_('S3',_'H',_100.0) + 0.00626686 In_('S3',_'H',_3.0)
 + 0.04540776 In_('S3',_'H',_50.0) + 0.0163668 In_('S3',_'H',_9999.0)
 + 9.624e-05 In_('S3',_'L',_1.0) + 0.00164344 In_('S3',_'L',_10.0)
 + 0.0030564 In_('S3',_'L',_100.0) + 0.00045032 In_('S3',_'L',_3.0)
 + 0.00331988 In_('S3',_'L',_50.0) + 0.00150536 In_('S3',_'M',_1.0)
 + 0.0246946 In_('S3',_'M',_10.0) + 0.04303082 In_('S3',_'M',_100.0)
 + 0.0068624 In_('S3',_'M',_3.0) + 0.07522116 In_('S3',_'M',_50.0)
 + 0.01783026 In_('S3',_'M',_9999.0) + 0.00233108 In_('S4',_'H',_1.0)
 + 0.04028838 In_('S4',_'H',_10.0) + 0.04799163 In_('S4',_'H',_100.0)
 + 0.00904668 In_('S4',_'H',_3.0) + 0.1185998 In_('S4',_'H',_50.0)
 + 0.07237505 In_('S4',_'H',_9999.0) + 8.113e-05 In_('S4',_'L',_1.0)
 + 0.00191838 In_('S4',_'L',_10.0) + 0.00037268 In_('S4',_'L',_3.0)
 + 0.00658033 In_('S4',_'L',_50.0) + 0.01218835 In_('S4',_'L',_9999.0)
 + 0.00264565 In_('S4',_'M',_1.0) + 0.04648303 In_('S4',_'M',_10.0)
 + 0.09549833 In_('S4',_'M',_100.0) + 0.0097716 In_('S4',_'M',_3.0)
 + 0.1569633 In_('S4',_'M',_50.0) + 0.22085055 In_('S4',_'M',_9999.0)
 + 0.00043268 In_('S5',_'H',_1.0) + 0.00940755 In_('S5',_'H',_10.0)
 + 0.01277325 In_('S5',_'H',_100.0) + 0.0020652 In_('S5',_'H',_3.0)
 + 0.02943535 In_('S5',_'H',_50.0) + 0.0385669 In_('S5',_'H',_9999.0)
 + 8.5e-06 In_('S5',_'L',_1.0) + 0.0002299 In_('S5',_'L',_10.0)
 + 0.00150093 In_('S5',_'L',_50.0) + 0.00660235 In_('S5',_'L',_9999.0)
 + 0.0005333 In_('S5',_'M',_1.0) + 0.00938895 In_('S5',_'M',_10.0)
 + 0.02705275 In_('S5',_'M',_100.0) + 0.00298833 In_('S5',_'M',_3.0)
 + 0.0359201 In_('S5',_'M',_50.0) + 0.1224956 In_('S5',_'M',_9999.0)
 + 0.00088845 In_('S6',_'H',_1.0) + 0.0151181 In_('S6',_'H',_10.0)
 + 0.03551013 In_('S6',_'H',_100.0) + 0.0031063 In_('S6',_'H',_3.0)
 + 0.05430208 In_('S6',_'H',_50.0) + 0.09252035 In_('S6',_'H',_9999.0)
 + 4.94e-05 In_('S6',_'L',_1.0) + 0.00077983 In_('S6',_'L',_10.0)
 + 0.00013785 In_('S6',_'L',_3.0) + 0.00281415 In_('S6',_'L',_50.0)
 + 0.02605955 In_('S6',_'L',_9999.0) + 0.00177418 In_('S6',_'M',_1.0)
 + 0.03788343 In_('S6',_'M',_10.0) + 0.0662194 In_('S6',_'M',_100.0)
 + 0.00880875 In_('S6',_'M',_3.0) + 0.11313675 In_('S6',_'M',_50.0)
 + 0.34704325 In_('S6',_'M',_9999.0)
Subject To
Lim_1_X_('S0',_'L'): In_('S0',_'L',_1.0) + In_('S0',_'L',_10.0)
 + In_('S0',_'L',_100.0) + In_('S0',_'L',_3.0) + In_('S0',_'L',_50.0)
 + In_('S0',_'L',_9999.0) <= 1
Lim_1_X_('S0',_'M'): In_('S0',_'M',_1.0) + In_('S0',_'M',_10.0)
 + In_('S0',_'M',_100.0) + In_('S0',_'M',_3.0) + In_('S0',_'M',_50.0)
 + In_('S0',_'M',_9999.0) <= 1
Lim_1_X_('S1',_'L'): In_('S1',_'L',_1.0) + In_('S1',_'L',_10.0)
 + In_('S1',_'L',_100.0) + In_('S1',_'L',_3.0) + In_('S1',_'L',_50.0)
 + In_('S1',_'L',_9999.0) <= 1
Lim_1_X_('S1',_'M'): In_('S1',_'M',_1.0) + In_('S1',_'M',_10.0)
 + In_('S1',_'M',_100.0) + In_('S1',_'M',_3.0) + In_('S1',_'M',_50.0)
 + In_('S1',_'M',_9999.0) <= 1
Lim_1_X_('S2',_'L'): In_('S2',_'L',_1.0) + In_('S2',_'L',_10.0)
 + In_('S2',_'L',_100.0) + In_('S2',_'L',_3.0) + In_('S2',_'L',_50.0)
 + In_('S2',_'L',_9999.0) <= 1
Lim_1_X_('S2',_'M'): In_('S2',_'M',_1.0) + In_('S2',_'M',_10.0)
 + In_('S2',_'M',_100.0) + In_('S2',_'M',_3.0) + In_('S2',_'M',_50.0)
 + In_('S2',_'M',_9999.0) <= 1
Lim_1_X_('S3',_'H'): In_('S3',_'H',_1.0) + In_('S3',_'H',_10.0)
 + In_('S3',_'H',_100.0) + In_('S3',_'H',_3.0) + In_('S3',_'H',_50.0)
 + In_('S3',_'H',_9999.0) <= 1
Lim_1_X_('S3',_'L'): In_('S3',_'L',_1.0) + In_('S3',_'L',_10.0)
 + In_('S3',_'L',_100.0) + In_('S3',_'L',_3.0) + In_('S3',_'L',_50.0)
 + In_('S3',_'L',_9999.0) <= 1
Lim_1_X_('S3',_'M'): In_('S3',_'M',_1.0) + In_('S3',_'M',_10.0)
 + In_('S3',_'M',_100.0) + In_('S3',_'M',_3.0) + In_('S3',_'M',_50.0)
 + In_('S3',_'M',_9999.0) <= 1
Lim_1_X_('S4',_'H'): In_('S4',_'H',_1.0) + In_('S4',_'H',_10.0)
 + In_('S4',_'H',_100.0) + In_('S4',_'H',_3.0) + In_('S4',_'H',_50.0)
 + In_('S4',_'H',_9999.0) <= 1
Lim_1_X_('S4',_'L'): In_('S4',_'L',_1.0) + In_('S4',_'L',_10.0)
 + In_('S4',_'L',_100.0) + In_('S4',_'L',_3.0) + In_('S4',_'L',_50.0)
 + In_('S4',_'L',_9999.0) <= 1
Lim_1_X_('S4',_'M'): In_('S4',_'M',_1.0) + In_('S4',_'M',_10.0)
 + In_('S4',_'M',_100.0) + In_('S4',_'M',_3.0) + In_('S4',_'M',_50.0)
 + In_('S4',_'M',_9999.0) <= 1
Lim_1_X_('S5',_'H'): In_('S5',_'H',_1.0) + In_('S5',_'H',_10.0)
 + In_('S5',_'H',_100.0) + In_('S5',_'H',_3.0) + In_('S5',_'H',_50.0)
 + In_('S5',_'H',_9999.0) <= 1
Lim_1_X_('S5',_'L'): In_('S5',_'L',_1.0) + In_('S5',_'L',_10.0)
 + In_('S5',_'L',_100.0) + In_('S5',_'L',_3.0) + In_('S5',_'L',_50.0)
 + In_('S5',_'L',_9999.0) <= 1
Lim_1_X_('S5',_'M'): In_('S5',_'M',_1.0) + In_('S5',_'M',_10.0)
 + In_('S5',_'M',_100.0) + In_('S5',_'M',_3.0) + In_('S5',_'M',_50.0)
 + In_('S5',_'M',_9999.0) <= 1
Lim_1_X_('S6',_'H'): In_('S6',_'H',_1.0) + In_('S6',_'H',_10.0)
 + In_('S6',_'H',_100.0) + In_('S6',_'H',_3.0) + In_('S6',_'H',_50.0)
 + In_('S6',_'H',_9999.0) <= 1
Lim_1_X_('S6',_'L'): In_('S6',_'L',_1.0) + In_('S6',_'L',_10.0)
 + In_('S6',_'L',_100.0) + In_('S6',_'L',_3.0) + In_('S6',_'L',_50.0)
 + In_('S6',_'L',_9999.0) <= 1
Lim_1_X_('S6',_'M'): In_('S6',_'M',_1.0) + In_('S6',_'M',_10.0)
 + In_('S6',_'M',_100.0) + In_('S6',_'M',_3.0) + In_('S6',_'M',_50.0)
 + In_('S6',_'M',_9999.0) <= 1
Lim_1_Y_('S0',_'L'): MR_('S0',_'L',_1.0) + MR_('S0',_'L',_10.0)
 + MR_('S0',_'L',_100.0) + MR_('S0',_'L',_3.0) + MR_('S0',_'L',_50.0)
 + MR_('S0',_'L',_9999.0) <= 1
Lim_1_Y_('S0',_'M'): MR_('S0',_'M',_1.0) + MR_('S0',_'M',_10.0)
 + MR_('S0',_'M',_100.0) + MR_('S0',_'M',_3.0) + MR_('S0',_'M',_50.0)
 + MR_('S0',_'M',_9999.0) <= 1
Lim_1_Y_('S1',_'L'): MR_('S1',_'L',_1.0) + MR_('S1',_'L',_10.0)
 + MR_('S1',_'L',_100.0) + MR_('S1',_'L',_3.0) + MR_('S1',_'L',_50.0)
 + MR_('S1',_'L',_9999.0) <= 1
Lim_1_Y_('S1',_'M'): MR_('S1',_'M',_1.0) + MR_('S1',_'M',_10.0)
 + MR_('S1',_'M',_100.0) + MR_('S1',_'M',_3.0) + MR_('S1',_'M',_50.0)
 + MR_('S1',_'M',_9999.0) <= 1
Lim_1_Y_('S2',_'L'): MR_('S2',_'L',_1.0) + MR_('S2',_'L',_10.0)
 + MR_('S2',_'L',_100.0) + MR_('S2',_'L',_3.0) + MR_('S2',_'L',_50.0)
 + MR_('S2',_'L',_9999.0) <= 1
Lim_1_Y_('S2',_'M'): MR_('S2',_'M',_1.0) + MR_('S2',_'M',_10.0)
 + MR_('S2',_'M',_100.0) + MR_('S2',_'M',_3.0) + MR_('S2',_'M',_50.0)
 + MR_('S2',_'M',_9999.0) <= 1
Lim_1_Y_('S3',_'H'): MR_('S3',_'H',_1.0) + MR_('S3',_'H',_10.0)
 + MR_('S3',_'H',_100.0) + MR_('S3',_'H',_3.0) + MR_('S3',_'H',_50.0)
 + MR_('S3',_'H',_9999.0) <= 1
Lim_1_Y_('S3',_'L'): MR_('S3',_'L',_1.0) + MR_('S3',_'L',_10.0)
 + MR_('S3',_'L',_100.0) + MR_('S3',_'L',_3.0) + MR_('S3',_'L',_50.0)
 + MR_('S3',_'L',_9999.0) <= 1
Lim_1_Y_('S3',_'M'): MR_('S3',_'M',_1.0) + MR_('S3',_'M',_10.0)
 + MR_('S3',_'M',_100.0) + MR_('S3',_'M',_3.0) + MR_('S3',_'M',_50.0)
 + MR_('S3',_'M',_9999.0) <= 1
Lim_1_Y_('S4',_'H'): MR_('S4',_'H',_1.0) + MR_('S4',_'H',_10.0)
 + MR_('S4',_'H',_100.0) + MR_('S4',_'H',_3.0) + MR_('S4',_'H',_50.0)
 + MR_('S4',_'H',_9999.0) <= 1
Lim_1_Y_('S4',_'L'): MR_('S4',_'L',_1.0) + MR_('S4',_'L',_10.0)
 + MR_('S4',_'L',_100.0) + MR_('S4',_'L',_3.0) + MR_('S4',_'L',_50.0)
 + MR_('S4',_'L',_9999.0) <= 1
Lim_1_Y_('S4',_'M'): MR_('S4',_'M',_1.0) + MR_('S4',_'M',_10.0)
 + MR_('S4',_'M',_100.0) + MR_('S4',_'M',_3.0) + MR_('S4',_'M',_50.0)
 + MR_('S4',_'M',_9999.0) <= 1
Lim_1_Y_('S5',_'H'): MR_('S5',_'H',_1.0) + MR_('S5',_'H',_10.0)
 + MR_('S5',_'H',_100.0) + MR_('S5',_'H',_3.0) + MR_('S5',_'H',_50.0)
 + MR_('S5',_'H',_9999.0) <= 1
Lim_1_Y_('S5',_'L'): MR_('S5',_'L',_1.0) + MR_('S5',_'L',_10.0)
 + MR_('S5',_'L',_100.0) + MR_('S5',_'L',_3.0) + MR_('S5',_'L',_50.0)
 + MR_('S5',_'L',_9999.0) <= 1
Lim_1_Y_('S5',_'M'): MR_('S5',_'M',_1.0) + MR_('S5',_'M',_10.0)
 + MR_('S5',_'M',_100.0) + MR_('S5',_'M',_3.0) + MR_('S5',_'M',_50.0)
 + MR_('S5',_'M',_9999.0) <= 1
Lim_1_Y_('S6',_'H'): MR_('S6',_'H',_1.0) + MR_('S6',_'H',_10.0)
 + MR_('S6',_'H',_100.0) + MR_('S6',_'H',_3.0) + MR_('S6',_'H',_50.0)
 + MR_('S6',_'H',_9999.0) <= 1
Lim_1_Y_('S6',_'L'): MR_('S6',_'L',_1.0) + MR_('S6',_'L',_10.0)
 + MR_('S6',_'L',_100.0) + MR_('S6',_'L',_3.0) + MR_('S6',_'L',_50.0)
 + MR_('S6',_'L',_9999.0) <= 1
Lim_1_Y_('S6',_'M'): MR_('S6',_'M',_1.0) + MR_('S6',_'M',_10.0)
 + MR_('S6',_'M',_100.0) + MR_('S6',_'M',_3.0) + MR_('S6',_'M',_50.0)
 + MR_('S6',_'M',_9999.0) <= 1
Lim_Manual_Total: 0.374 MR_('S0',_'L',_1.0) + 1.081 MR_('S0',_'L',_10.0)
 + 1.455 MR_('S0',_'L',_100.0) + 0.685 MR_('S0',_'L',_3.0)
 + 1.395 MR_('S0',_'L',_50.0) + 1.492 MR_('S0',_'L',_9999.0)
 + 0.283 MR_('S0',_'M',_1.0) + 0.766 MR_('S0',_'M',_10.0)
 + 1.036 MR_('S0',_'M',_100.0) + 0.49 MR_('S0',_'M',_3.0)
 + MR_('S0',_'M',_50.0) + 1.068 MR_('S0',_'M',_9999.0)
 + 0.13 MR_('S1',_'L',_1.0) + 0.324 MR_('S1',_'L',_10.0)
 + 0.382 MR_('S1',_'L',_100.0) + 0.219 MR_('S1',_'L',_3.0)
 + 0.38 MR_('S1',_'L',_50.0) + 0.386 MR_('S1',_'L',_9999.0)
 + 0.46 MR_('S1',_'M',_1.0) + 1.038 MR_('S1',_'M',_10.0)
 + 1.28 MR_('S1',_'M',_100.0) + 0.732 MR_('S1',_'M',_3.0)
 + 1.255 MR_('S1',_'M',_50.0) + 1.293 MR_('S1',_'M',_9999.0)
 + 0.072 MR_('S2',_'L',_1.0) + 0.181 MR_('S2',_'L',_10.0)
 + 0.221 MR_('S2',_'L',_100.0) + 0.114 MR_('S2',_'L',_3.0)
 + 0.219 MR_('S2',_'L',_50.0) + 0.221 MR_('S2',_'L',_9999.0)
 + 0.689 MR_('S2',_'M',_1.0) + 1.749 MR_('S2',_'M',_10.0)
 + 2.191 MR_('S2',_'M',_100.0) + 1.178 MR_('S2',_'M',_3.0)
 + 2.141 MR_('S2',_'M',_50.0) + 2.203 MR_('S2',_'M',_9999.0)
 + 0.219 MR_('S3',_'H',_1.0) + 0.589 MR_('S3',_'H',_10.0)
 + 0.72 MR_('S3',_'H',_100.0) + 0.387 MR_('S3',_'H',_3.0)
 + 0.705 MR_('S3',_'H',_50.0) + 0.725 MR_('S3',_'H',_9999.0)
 + 0.012 MR_('S3',_'L',_1.0) + 0.04 MR_('S3',_'L',_10.0)
 + 0.051 MR_('S3',_'L',_100.0) + 0.024 MR_('S3',_'L',_3.0)
 + 0.049 MR_('S3',_'L',_50.0) + 0.051 MR_('S3',_'L',_9999.0)
 + 0.217 MR_('S3',_'M',_1.0) + 0.609 MR_('S3',_'M',_10.0)
 + 0.813 MR_('S3',_'M',_100.0) + 0.394 MR_('S3',_'M',_3.0)
 + 0.782 MR_('S3',_'M',_50.0) + 0.819 MR_('S3',_'M',_9999.0)
 + 0.246 MR_('S4',_'H',_1.0) + 0.722 MR_('S4',_'H',_10.0)
 + 0.965 MR_('S4',_'H',_100.0) + 0.444 MR_('S4',_'H',_3.0)
 + 0.936 MR_('S4',_'H',_50.0) + 0.98 MR_('S4',_'H',_9999.0)
 + 0.009 MR_('S4',_'L',_1.0) + 0.031 MR_('S4',_'L',_10.0)
 + 0.043 MR_('S4',_'L',_100.0) + 0.017 MR_('S4',_'L',_3.0)
 + 0.043 MR_('S4',_'L',_50.0) + 0.046 MR_('S4',_'L',_9999.0)
 + 0.279 MR_('S4',_'M',_1.0) + 0.799 MR_('S4',_'M',_10.0)
 + 1.145 MR_('S4',_'M',_100.0) + 0.493 MR_('S4',_'M',_3.0)
 + 1.09 MR_('S4',_'M',_50.0) + 1.184 MR_('S4',_'M',_9999.0)
 + 0.042 MR_('S5',_'H',_1.0) + 0.151 MR_('S5',_'H',_10.0)
 + 0.209 MR_('S5',_'H',_100.0) + 0.088 MR_('S5',_'H',_3.0)
 + 0.202 MR_('S5',_'H',_50.0) + 0.218 MR_('S5',_'H',_9999.0)
 + 0.001 MR_('S5',_'L',_1.0) + 0.002 MR_('S5',_'L',_10.0)
 + 0.005 MR_('S5',_'L',_100.0) + 0.001 MR_('S5',_'L',_3.0)
 + 0.005 MR_('S5',_'L',_50.0) + 0.006 MR_('S5',_'L',_9999.0)
 + 0.058 MR_('S5',_'M',_1.0) + 0.183 MR_('S5',_'M',_10.0)
 + 0.27 MR_('S5',_'M',_100.0) + 0.118 MR_('S5',_'M',_3.0)
 + 0.253 MR_('S5',_'M',_50.0) + 0.279 MR_('S5',_'M',_9999.0)
 + 0.088 MR_('S6',_'H',_1.0) + 0.255 MR_('S6',_'H',_10.0)
 + 0.37 MR_('S6',_'H',_100.0) + 0.155 MR_('S6',_'H',_3.0)
 + 0.35 MR_('S6',_'H',_50.0) + 0.386 MR_('S6',_'H',_9999.0)
 + 0.005 MR_('S6',_'L',_1.0) + 0.012 MR_('S6',_'L',_10.0)
 + 0.017 MR_('S6',_'L',_100.0) + 0.008 MR_('S6',_'L',_3.0)
 + 0.017 MR_('S6',_'L',_50.0) + 0.018 MR_('S6',_'L',_9999.0)
 + 0.175 MR_('S6',_'M',_1.0) + 0.613 MR_('S6',_'M',_10.0)
 + 0.86 MR_('S6',_'M',_100.0) + 0.353 MR_('S6',_'M',_3.0)
 + 0.82 MR_('S6',_'M',_50.0) + 0.9 MR_('S6',_'M',_9999.0) <= 0.613
Lim_WO_Total_Auto: 0.00028386 In_('S0',_'L',_1.0)
 + 0.00568555 In_('S0',_'L',_10.0) + 0.02668808 In_('S0',_'L',_100.0)
 + 0.00139971 In_('S0',_'L',_3.0) + 0.01847084 In_('S0',_'L',_50.0)
 + 0.04162483 In_('S0',_'L',_9999.0) + 0.00081234 In_('S0',_'M',_1.0)
 + 0.01640099 In_('S0',_'M',_10.0) + 0.07652577 In_('S0',_'M',_100.0)
 + 0.00383748 In_('S0',_'M',_3.0) + 0.05789622 In_('S0',_'M',_50.0)
 + 0.12867223 In_('S0',_'M',_9999.0) + 4.329e-05 In_('S1',_'L',_1.0)
 + 0.00080035 In_('S1',_'L',_10.0) + 0.00202229 In_('S1',_'L',_100.0)
 + 0.00021229 In_('S1',_'L',_3.0) + 0.00191165 In_('S1',_'L',_50.0)
 + 0.00293476 In_('S1',_'L',_9999.0) + 0.00112512 In_('S1',_'M',_1.0)
 + 0.01659896 In_('S1',_'M',_10.0) + 0.06153168 In_('S1',_'M',_100.0)
 + 0.00464607 In_('S1',_'M',_3.0) + 0.04950472 In_('S1',_'M',_50.0)
 + 0.07740334 In_('S1',_'M',_9999.0) + 2.884e-05 In_('S2',_'L',_1.0)
 + 0.00055536 In_('S2',_'L',_10.0) + 0.00142638 In_('S2',_'L',_100.0)
 + 0.00011291 In_('S2',_'L',_3.0) + 0.00127309 In_('S2',_'L',_50.0)
 + 0.00142638 In_('S2',_'L',_9999.0) + 0.0018303 In_('S2',_'M',_1.0)
 + 0.03067476 In_('S2',_'M',_10.0) + 0.11008848 In_('S2',_'M',_100.0)
 + 0.00832206 In_('S2',_'M',_3.0) + 0.0852095 In_('S2',_'M',_50.0)
 + 0.12449487 In_('S2',_'M',_9999.0) + 0.00150262 In_('S3',_'H',_1.0)
 + 0.03080741 In_('S3',_'H',_10.0) + 0.09760808 In_('S3',_'H',_100.0)
 + 0.00798544 In_('S3',_'H',_3.0) + 0.07777992 In_('S3',_'H',_50.0)
 + 0.11453888 In_('S3',_'H',_9999.0) + 1.294e-05 In_('S3',_'L',_1.0)
 + 0.00029447 In_('S3',_'L',_10.0) + 0.00115182 In_('S3',_'L',_100.0)
 + 7.349e-05 In_('S3',_'L',_3.0) + 0.00074086 In_('S3',_'L',_50.0)
 + 0.00115182 In_('S3',_'L',_9999.0) + 0.00065402 In_('S3',_'M',_1.0)
 + 0.01436428 In_('S3',_'M',_10.0) + 0.06574004 In_('S3',_'M',_100.0)
 + 0.00363546 In_('S3',_'M',_3.0) + 0.04704487 In_('S3',_'M',_50.0)
 + 0.07348657 In_('S3',_'M',_9999.0) + 0.00159518 In_('S4',_'H',_1.0)
 + 0.03535575 In_('S4',_'H',_10.0) + 0.14935626 In_('S4',_'H',_100.0)
 + 0.00778593 In_('S4',_'H',_3.0) + 0.11651502 In_('S4',_'H',_50.0)
 + 0.19888338 In_('S4',_'H',_9999.0) + 1.95e-06 In_('S4',_'L',_1.0)
 + 5.693e-05 In_('S4',_'L',_10.0) + 0.00021486 In_('S4',_'L',_100.0)
 + 1.089e-05 In_('S4',_'L',_3.0) + 0.00021486 In_('S4',_'L',_50.0)
 + 0.00050738 In_('S4',_'L',_9999.0) + 0.00054054 In_('S4',_'M',_1.0)
 + 0.01203404 In_('S4',_'M',_10.0) + 0.06361498 In_('S4',_'M',_100.0)
 + 0.002537 In_('S4',_'M',_3.0) + 0.04410353 In_('S4',_'M',_50.0)
 + 0.1087374 In_('S4',_'M',_9999.0) + 0.00021866 In_('S5',_'H',_1.0)
 + 0.00601662 In_('S5',_'H',_10.0) + 0.02734749 In_('S5',_'H',_100.0)
 + 0.00126235 In_('S5',_'H',_3.0) + 0.0208923 In_('S5',_'H',_50.0)
 + 0.04683797 In_('S5',_'H',_9999.0) + 2e-07 In_('S5',_'L',_1.0)
 + 5.72e-06 In_('S5',_'L',_10.0) + 4.174e-05 In_('S5',_'L',_100.0)
 + 2e-07 In_('S5',_'L',_3.0) + 4.174e-05 In_('S5',_'L',_50.0)
 + 0.0002002 In_('S5',_'L',_9999.0) + 1.353e-05 In_('S5',_'M',_1.0)
 + 0.00032752 In_('S5',_'M',_10.0) + 0.00192501 In_('S5',_'M',_100.0)
 + 8.934e-05 In_('S5',_'M',_3.0) + 0.00123874 In_('S5',_'M',_50.0)
 + 0.00503248 In_('S5',_'M',_9999.0) + 0.00044635 In_('S6',_'H',_1.0)
 + 0.00960214 In_('S6',_'H',_10.0) + 0.05472307 In_('S6',_'H',_100.0)
 + 0.00200693 In_('S6',_'H',_3.0) + 0.03688307 In_('S6',_'H',_50.0)
 + 0.10120455 In_('S6',_'H',_9999.0) + 1.19e-06 In_('S6',_'L',_1.0)
 + 2.322e-05 In_('S6',_'L',_10.0) + 9.076e-05 In_('S6',_'L',_100.0)
 + 4.5e-06 In_('S6',_'L',_3.0) + 9.076e-05 In_('S6',_'L',_50.0)
 + 0.00071619 In_('S6',_'L',_9999.0) + 3.973e-05 In_('S6',_'M',_1.0)
 + 0.00108527 In_('S6',_'M',_10.0) + 0.00510141 In_('S6',_'M',_100.0)
 + 0.00023698 In_('S6',_'M',_3.0) + 0.00361863 In_('S6',_'M',_50.0)
 + 0.0128724 In_('S6',_'M',_9999.0) - 7.096e-05 MR_('S0',_'L',_1.0)
 - 0.00142138 MR_('S0',_'L',_10.0) - 0.00667201 MR_('S0',_'L',_100.0)
 - 0.00034992 MR_('S0',_'L',_3.0) - 0.0046177 MR_('S0',_'L',_50.0)
 - 0.0104062 MR_('S0',_'L',_9999.0) - 0.00020308 MR_('S0',_'M',_1.0)
 - 0.00410024 MR_('S0',_'M',_10.0) - 0.01913144 MR_('S0',_'M',_100.0)
 - 0.00095936 MR_('S0',_'M',_3.0) - 0.01447405 MR_('S0',_'M',_50.0)
 - 0.03216805 MR_('S0',_'M',_9999.0) - 1.082e-05 MR_('S1',_'L',_1.0)
 - 0.00020008 MR_('S1',_'L',_10.0) - 0.00050556 MR_('S1',_'L',_100.0)
 - 5.307e-05 MR_('S1',_'L',_3.0) - 0.0004779 MR_('S1',_'L',_50.0)
 - 0.00073368 MR_('S1',_'L',_9999.0) - 0.00028128 MR_('S1',_'M',_1.0)
 - 0.00414974 MR_('S1',_'M',_10.0) - 0.01538292 MR_('S1',_'M',_100.0)
 - 0.00116152 MR_('S1',_'M',_3.0) - 0.01237618 MR_('S1',_'M',_50.0)
 - 0.01935083 MR_('S1',_'M',_9999.0) - 7.21e-06 MR_('S2',_'L',_1.0)
 - 0.00013884 MR_('S2',_'L',_10.0) - 0.00035659 MR_('S2',_'L',_100.0)
 - 2.823e-05 MR_('S2',_'L',_3.0) - 0.00031827 MR_('S2',_'L',_50.0)
 - 0.00035659 MR_('S2',_'L',_9999.0) - 0.00045757 MR_('S2',_'M',_1.0)
 - 0.00766868 MR_('S2',_'M',_10.0) - 0.0275221 MR_('S2',_'M',_100.0)
 - 0.00208051 MR_('S2',_'M',_3.0) - 0.02130236 MR_('S2',_'M',_50.0)
 - 0.0311237 MR_('S2',_'M',_9999.0) - 0.00037565 MR_('S3',_'H',_1.0)
 - 0.00770184 MR_('S3',_'H',_10.0) - 0.02440201 MR_('S3',_'H',_100.0)
 - 0.00199635 MR_('S3',_'H',_3.0) - 0.01944497 MR_('S3',_'H',_50.0)
 - 0.02863471 MR_('S3',_'H',_9999.0) - 3.23e-06 MR_('S3',_'L',_1.0)
 - 7.361e-05 MR_('S3',_'L',_10.0) - 0.00028795 MR_('S3',_'L',_100.0)
 - 1.837e-05 MR_('S3',_'L',_3.0) - 0.00018521 MR_('S3',_'L',_50.0)
 - 0.00028795 MR_('S3',_'L',_9999.0) - 0.0001635 MR_('S3',_'M',_1.0)
 - 0.00359106 MR_('S3',_'M',_10.0) - 0.016435 MR_('S3',_'M',_100.0)
 - 0.00090886 MR_('S3',_'M',_3.0) - 0.01176121 MR_('S3',_'M',_50.0)
 - 0.01837163 MR_('S3',_'M',_9999.0) - 0.00039879 MR_('S4',_'H',_1.0)
 - 0.00883893 MR_('S4',_'H',_10.0) - 0.03733906 MR_('S4',_'H',_100.0)
 - 0.00194648 MR_('S4',_'H',_3.0) - 0.02912875 MR_('S4',_'H',_50.0)
 - 0.04972084 MR_('S4',_'H',_9999.0) - 4.9e-07 MR_('S4',_'L',_1.0)
 - 1.423e-05 MR_('S4',_'L',_10.0) - 5.371e-05 MR_('S4',_'L',_100.0)
 - 2.72e-06 MR_('S4',_'L',_3.0) - 5.371e-05 MR_('S4',_'L',_50.0)
 - 0.00012684 MR_('S4',_'L',_9999.0) - 0.00013513 MR_('S4',_'M',_1.0)
 - 0.0030085 MR_('S4',_'M',_10.0) - 0.01590373 MR_('S4',_'M',_100.0)
 - 0.00063424 MR_('S4',_'M',_3.0) - 0.01102587 MR_('S4',_'M',_50.0)
 - 0.02718433 MR_('S4',_'M',_9999.0) - 5.466e-05 MR_('S5',_'H',_1.0)
 - 0.00150415 MR_('S5',_'H',_10.0) - 0.00683687 MR_('S5',_'H',_100.0)
 - 0.00031558 MR_('S5',_'H',_3.0) - 0.00522307 MR_('S5',_'H',_50.0)
 - 0.01170949 MR_('S5',_'H',_9999.0) - 5e-08 MR_('S5',_'L',_1.0)
 - 1.43e-06 MR_('S5',_'L',_10.0) - 1.043e-05 MR_('S5',_'L',_100.0)
 - 5e-08 MR_('S5',_'L',_3.0) - 1.043e-05 MR_('S5',_'L',_50.0)
 - 5.004e-05 MR_('S5',_'L',_9999.0) - 3.38e-06 MR_('S5',_'M',_1.0)
 - 8.187e-05 MR_('S5',_'M',_10.0) - 0.00048124 MR_('S5',_'M',_100.0)
 - 2.233e-05 MR_('S5',_'M',_3.0) - 0.00030967 MR_('S5',_'M',_50.0)
 - 0.00125811 MR_('S5',_'M',_9999.0) - 0.00011159 MR_('S6',_'H',_1.0)
 - 0.00240053 MR_('S6',_'H',_10.0) - 0.01368076 MR_('S6',_'H',_100.0)
 - 0.00050173 MR_('S6',_'H',_3.0) - 0.00922076 MR_('S6',_'H',_50.0)
 - 0.02530113 MR_('S6',_'H',_9999.0) - 3e-07 MR_('S6',_'L',_1.0)
 - 5.81e-06 MR_('S6',_'L',_10.0) - 2.269e-05 MR_('S6',_'L',_100.0)
 - 1.13e-06 MR_('S6',_'L',_3.0) - 2.269e-05 MR_('S6',_'L',_50.0)
 - 0.00017905 MR_('S6',_'L',_9999.0) - 9.93e-06 MR_('S6',_'M',_1.0)
 - 0.00027131 MR_('S6',_'M',_10.0) - 0.00127534 MR_('S6',_'M',_100.0)
 - 5.924e-05 MR_('S6',_'M',_3.0) - 0.00090465 MR_('S6',_'M',_50.0)
 - 0.00321809 MR_('S6',_'M',_9999.0) <= 0.703354
X_>_Y_('S0',_'L'): In_('S0',_'L',_1.0) + In_('S0',_'L',_10.0)
 + In_('S0',_'L',_100.0) + In_('S0',_'L',_3.0) + In_('S0',_'L',_50.0)
 + In_('S0',_'L',_9999.0) - MR_('S0',_'L',_1.0) - MR_('S0',_'L',_10.0)
 - MR_('S0',_'L',_100.0) - MR_('S0',_'L',_3.0) - MR_('S0',_'L',_50.0)
 - MR_('S0',_'L',_9999.0) >= 0
X_>_Y_('S0',_'M'): In_('S0',_'M',_1.0) + In_('S0',_'M',_10.0)
 + In_('S0',_'M',_100.0) + In_('S0',_'M',_3.0) + In_('S0',_'M',_50.0)
 + In_('S0',_'M',_9999.0) - MR_('S0',_'M',_1.0) - MR_('S0',_'M',_10.0)
 - MR_('S0',_'M',_100.0) - MR_('S0',_'M',_3.0) - MR_('S0',_'M',_50.0)
 - MR_('S0',_'M',_9999.0) >= 0
X_>_Y_('S1',_'L'): In_('S1',_'L',_1.0) + In_('S1',_'L',_10.0)
 + In_('S1',_'L',_100.0) + In_('S1',_'L',_3.0) + In_('S1',_'L',_50.0)
 + In_('S1',_'L',_9999.0) - MR_('S1',_'L',_1.0) - MR_('S1',_'L',_10.0)
 - MR_('S1',_'L',_100.0) - MR_('S1',_'L',_3.0) - MR_('S1',_'L',_50.0)
 - MR_('S1',_'L',_9999.0) >= 0
X_>_Y_('S1',_'M'): In_('S1',_'M',_1.0) + In_('S1',_'M',_10.0)
 + In_('S1',_'M',_100.0) + In_('S1',_'M',_3.0) + In_('S1',_'M',_50.0)
 + In_('S1',_'M',_9999.0) - MR_('S1',_'M',_1.0) - MR_('S1',_'M',_10.0)
 - MR_('S1',_'M',_100.0) - MR_('S1',_'M',_3.0) - MR_('S1',_'M',_50.0)
 - MR_('S1',_'M',_9999.0) >= 0
X_>_Y_('S2',_'L'): In_('S2',_'L',_1.0) + In_('S2',_'L',_10.0)
 + In_('S2',_'L',_100.0) + In_('S2',_'L',_3.0) + In_('S2',_'L',_50.0)
 + In_('S2',_'L',_9999.0) - MR_('S2',_'L',_1.0) - MR_('S2',_'L',_10.0)
 - MR_('S2',_'L',_100.0) - MR_('S2',_'L',_3.0) - MR_('S2',_'L',_50.0)
 - MR_('S2',_'L',_9999.0) >= 0
X_>_Y_('S2',_'M'): In_('S2',_'M',_1.0) + In_('S2',_'M',_10.0)
 + In_('S2',_'M',_100.0) + In_('S2',_'M',_3.0) + In_('S2',_'M',_50.0)
 + In_('S2',_'M',_9999.0) - MR_('S2',_'M',_1.0) - MR_('S2',_'M',_10.0)
 - MR_('S2',_'M',_100.0) - MR_('S2',_'M',_3.0) - MR_('S2',_'M',_50.0)
 - MR_('S2',_'M',_9999.0) >= 0
X_>_Y_('S3',_'H'): In_('S3',_'H',_1.0) + In_('S3',_'H',_10.0)
 + In_('S3',_'H',_100.0) + In_('S3',_'H',_3.0) + In_('S3',_'H',_50.0)
 + In_('S3',_'H',_9999.0) - MR_('S3',_'H',_1.0) - MR_('S3',_'H',_10.0)
 - MR_('S3',_'H',_100.0) - MR_('S3',_'H',_3.0) - MR_('S3',_'H',_50.0)
 - MR_('S3',_'H',_9999.0) >= 0
X_>_Y_('S3',_'L'): In_('S3',_'L',_1.0) + In_('S3',_'L',_10.0)
 + In_('S3',_'L',_100.0) + In_('S3',_'L',_3.0) + In_('S3',_'L',_50.0)
 + In_('S3',_'L',_9999.0) - MR_('S3',_'L',_1.0) - MR_('S3',_'L',_10.0)
 - MR_('S3',_'L',_100.0) - MR_('S3',_'L',_3.0) - MR_('S3',_'L',_50.0)
 - MR_('S3',_'L',_9999.0) >= 0
X_>_Y_('S3',_'M'): In_('S3',_'M',_1.0) + In_('S3',_'M',_10.0)
 + In_('S3',_'M',_100.0) + In_('S3',_'M',_3.0) + In_('S3',_'M',_50.0)
 + In_('S3',_'M',_9999.0) - MR_('S3',_'M',_1.0) - MR_('S3',_'M',_10.0)
 - MR_('S3',_'M',_100.0) - MR_('S3',_'M',_3.0) - MR_('S3',_'M',_50.0)
 - MR_('S3',_'M',_9999.0) >= 0
X_>_Y_('S4',_'H'): In_('S4',_'H',_1.0) + In_('S4',_'H',_10.0)
 + In_('S4',_'H',_100.0) + In_('S4',_'H',_3.0) + In_('S4',_'H',_50.0)
 + In_('S4',_'H',_9999.0) - MR_('S4',_'H',_1.0) - MR_('S4',_'H',_10.0)
 - MR_('S4',_'H',_100.0) - MR_('S4',_'H',_3.0) - MR_('S4',_'H',_50.0)
 - MR_('S4',_'H',_9999.0) >= 0
X_>_Y_('S4',_'L'): In_('S4',_'L',_1.0) + In_('S4',_'L',_10.0)
 + In_('S4',_'L',_100.0) + In_('S4',_'L',_3.0) + In_('S4',_'L',_50.0)
 + In_('S4',_'L',_9999.0) - MR_('S4',_'L',_1.0) - MR_('S4',_'L',_10.0)
 - MR_('S4',_'L',_100.0) - MR_('S4',_'L',_3.0) - MR_('S4',_'L',_50.0)
 - MR_('S4',_'L',_9999.0) >= 0
X_>_Y_('S4',_'M'): In_('S4',_'M',_1.0) + In_('S4',_'M',_10.0)
 + In_('S4',_'M',_100.0) + In_('S4',_'M',_3.0) + In_('S4',_'M',_50.0)
 + In_('S4',_'M',_9999.0) - MR_('S4',_'M',_1.0) - MR_('S4',_'M',_10.0)
 - MR_('S4',_'M',_100.0) - MR_('S4',_'M',_3.0) - MR_('S4',_'M',_50.0)
 - MR_('S4',_'M',_9999.0) >= 0
X_>_Y_('S5',_'H'): In_('S5',_'H',_1.0) + In_('S5',_'H',_10.0)
 + In_('S5',_'H',_100.0) + In_('S5',_'H',_3.0) + In_('S5',_'H',_50.0)
 + In_('S5',_'H',_9999.0) - MR_('S5',_'H',_1.0) - MR_('S5',_'H',_10.0)
 - MR_('S5',_'H',_100.0) - MR_('S5',_'H',_3.0) - MR_('S5',_'H',_50.0)
 - MR_('S5',_'H',_9999.0) >= 0
X_>_Y_('S5',_'L'): In_('S5',_'L',_1.0) + In_('S5',_'L',_10.0)
 + In_('S5',_'L',_100.0) + In_('S5',_'L',_3.0) + In_('S5',_'L',_50.0)
 + In_('S5',_'L',_9999.0) - MR_('S5',_'L',_1.0) - MR_('S5',_'L',_10.0)
 - MR_('S5',_'L',_100.0) - MR_('S5',_'L',_3.0) - MR_('S5',_'L',_50.0)
 - MR_('S5',_'L',_9999.0) >= 0
X_>_Y_('S5',_'M'): In_('S5',_'M',_1.0) + In_('S5',_'M',_10.0)
 + In_('S5',_'M',_100.0) + In_('S5',_'M',_3.0) + In_('S5',_'M',_50.0)
 + In_('S5',_'M',_9999.0) - MR_('S5',_'M',_1.0) - MR_('S5',_'M',_10.0)
 - MR_('S5',_'M',_100.0) - MR_('S5',_'M',_3.0) - MR_('S5',_'M',_50.0)
 - MR_('S5',_'M',_9999.0) >= 0
X_>_Y_('S6',_'H'): In_('S6',_'H',_1.0) + In_('S6',_'H',_10.0)
 + In_('S6',_'H',_100.0) + In_('S6',_'H',_3.0) + In_('S6',_'H',_50.0)
 + In_('S6',_'H',_9999.0) - MR_('S6',_'H',_1.0) - MR_('S6',_'H',_10.0)
 - MR_('S6',_'H',_100.0) - MR_('S6',_'H',_3.0) - MR_('S6',_'H',_50.0)
 - MR_('S6',_'H',_9999.0) >= 0
X_>_Y_('S6',_'L'): In_('S6',_'L',_1.0) + In_('S6',_'L',_10.0)
 + In_('S6',_'L',_100.0) + In_('S6',_'L',_3.0) + In_('S6',_'L',_50.0)
 + In_('S6',_'L',_9999.0) - MR_('S6',_'L',_1.0) - MR_('S6',_'L',_10.0)
 - MR_('S6',_'L',_100.0) - MR_('S6',_'L',_3.0) - MR_('S6',_'L',_50.0)
 - MR_('S6',_'L',_9999.0) >= 0
X_>_Y_('S6',_'M'): In_('S6',_'M',_1.0) + In_('S6',_'M',_10.0)
 + In_('S6',_'M',_100.0) + In_('S6',_'M',_3.0) + In_('S6',_'M',_50.0)
 + In_('S6',_'M',_9999.0) - MR_('S6',_'M',_1.0) - MR_('S6',_'M',_10.0)
 - MR_('S6',_'M',_100.0) - MR_('S6',_'M',_3.0) - MR_('S6',_'M',_50.0)
 - MR_('S6',_'M',_9999.0) >= 0
Binaries
In_('S0',_'L',_1.0)
In_('S0',_'L',_10.0)
In_('S0',_'L',_100.0)
In_('S0',_'L',_3.0)
In_('S0',_'L',_50.0)
In_('S0',_'L',_9999.0)
In_('S0',_'M',_1.0)
In_('S0',_'M',_10.0)
In_('S0',_'M',_100.0)
In_('S0',_'M',_3.0)
In_('S0',_'M',_50.0)
In_('S0',_'M',_9999.0)
In_('S1',_'L',_1.0)
In_('S1',_'L',_10.0)
In_('S1',_'L',_100.0)
In_('S1',_'L',_3.0)
In_('S1',_'L',_50.0)
In_('S1',_'L',_9999.0)
In_('S1',_'M',_1.0)
In_('S1',_'M',_10.0)
In_('S1',_'M',_100.0)
In_('S1',_'M',_3.0)
In_('S1',_'M',_50.0)
In_('S1',_'M',_9999.0)
In_('S2',_'L',_1.0)
In_('S2',_'L',_10.0)
In_('S2',_'L',_100.0)
In_('S2',_'L',_3.0)
In_('S2',_'L',_50.0)
In_('S2',_'L',_9999.0)
In_('S2',_'M',_1.0)
In_('S2',_'M',_10.0)
In_('S2',_'M',_100.0)
In_('S2',_'M',_3.0)
In_('S2',_'M',_50.0)
In_('S2',_'M',_9999.0)
In_('S3',_'H',_1.0)
In_('S3',_'H',_10.0)
In_('S3',_'H',_100.0)
In_('S3',_'H',_3.0)
In_('S3',_'H',_50.0)
In_('S3',_'H',_9999.0)
In_('S3',_'L',_1.0)
In_('S3',_'L',_10.0)
In_('S3',_'L',_100.0)
In_('S3',_'L',_3.0)
In_('S3',_'L',_50.0)
In_('S3',_'L',_9999.0)
In_('S3',_'M',_1.0)
In_('S3',_'M',_10.0)
In_('S3',_'M',_100.0)
In_('S3',_'M',_3.0)
In_('S3',_'M',_50.0)
In_('S3',_'M',_9999.0)
In_('S4',_'H',_1.0)
In_('S4',_'H',_10.0)
In_('S4',_'H',_100.0)
In_('S4',_'H',_3.0)
In_('S4',_'H',_50.0)
In_('S4',_'H',_9999.0)
In_('S4',_'L',_1.0)
In_('S4',_'L',_10.0)
In_('S4',_'L',_100.0)
In_('S4',_'L',_3.0)
In_('S4',_'L',_50.0)
In_('S4',_'L',_9999.0)
In_('S4',_'M',_1.0)
In_('S4',_'M',_10.0)
In_('S4',_'M',_100.0)
In_('S4',_'M',_3.0)
In_('S4',_'M',_50.0)
In_('S4',_'M',_9999.0)
In_('S5',_'H',_1.0)
In_('S5',_'H',_10.0)
In_('S5',_'H',_100.0)
In_('S5',_'H',_3.0)
In_('S5',_'H',_50.0)
In_('S5',_'H',_9999.0)
In_('S5',_'L',_1.0)
In_('S5',_'L',_10.0)
In_('S5',_'L',_100.0)
In_('S5',_'L',_3.0)
In_('S5',_'L',_50.0)
In_('S5',_'L',_9999.0)
In_('S5',_'M',_1.0)
In_('S5',_'M',_10.0)
In_('S5',_'M',_100.0)
In_('S5',_'M',_3.0)
In_('S5',_'M',_50.0)
In_('S5',_'M',_9999.0)
In_('S6',_'H',_1.0)
In_('S6',_'H',_10.0)
In_('S6',_'H',_100.0)
In_('S6',_'H',_3.0)
In_('S6',_'H',_50.0)
In_('S6',_'H',_9999.0)
In_('S6',_'L',_1.0)
In_('S6',_'L',_10.0)
In_('S6',_'L',_100.0)
In_('S6',_'L',_3.0)
In_('S6',_'L',_50.0)
In_('S6',_'L',_9999.0)
In_('S6',_'M',_1.0)
In_('S6',_'M',_10.0)
In_('S6',_'M',_100.0)
In_('S6',_'M',_3.0)
In_('S6',_'M',_50.0)
In_('S6',_'M',_9999.0)
MR_('S0',_'L',_1.0)
MR_('S0',_'L',_10.0)
MR_('S0',_'L',_100.0)
MR_('S0',_'L',_3.0)
MR_('S0',_'L',_50.0)
MR_('S0',_'L',_9999.0)
MR_('S0',_'M',_1.0)
MR_('S0',_'M',_10.0)
MR_('S0',_'M',_100.0)
MR_('S0',_'M',_3.0)
MR_('S0',_'M',_50.0)
MR_('S0',_'M',_9999.0)
MR_('S1',_'L',_1.0)
MR_('S1',_'L',_10.0)
MR_('S1',_'L',_100.0)
MR_('S1',_'L',_3.0)
MR_('S1',_'L',_50.0)
MR_('S1',_'L',_9999.0)
MR_('S1',_'M',_1.0)
MR_('S1',_'M',_10.0)
MR_('S1',_'M',_100.0)
MR_('S1',_'M',_3.0)
MR_('S1',_'M',_50.0)
MR_('S1',_'M',_9999.0)
MR_('S2',_'L',_1.0)
MR_('S2',_'L',_10.0)
MR_('S2',_'L',_100.0)
MR_('S2',_'L',_3.0)
MR_('S2',_'L',_50.0)
MR_('S2',_'L',_9999.0)
MR_('S2',_'M',_1.0)
MR_('S2',_'M',_10.0)
MR_('S2',_'M',_100.0)
MR_('S2',_'M',_3.0)
MR_('S2',_'M',_50.0)
MR_('S2',_'M',_9999.0)
MR_('S3',_'H',_1.0)
MR_('S3',_'H',_10.0)
MR_('S3',_'H',_100.0)
MR_('S3',_'H',_3.0)
MR_('S3',_'H',_50.0)
MR_('S3',_'H',_9999.0)
MR_('S3',_'L',_1.0)
MR_('S3',_'L',_10.0)
MR_('S3',_'L',_100.0)
MR_('S3',_'L',_3.0)
MR_('S3',_'L',_50.0)
MR_('S3',_'L',_9999.0)
MR_('S3',_'M',_1.0)
MR_('S3',_'M',_10.0)
MR_('S3',_'M',_100.0)
MR_('S3',_'M',_3.0)
MR_('S3',_'M',_50.0)
MR_('S3',_'M',_9999.0)
MR_('S4',_'H',_1.0)
MR_('S4',_'H',_10.0)
MR_('S4',_'H',_100.0)
MR_('S4',_'H',_3.0)
MR_('S4',_'H',_50.0)
MR_('S4',_'H',_9999.0)
MR_('S4',_'L',_1.0)
MR_('S4',_'L',_10.0)
MR_('S4',_'L',_100.0)
MR_('S4',_'L',_3.0)
MR_('S4',_'L',_50.0)
MR_('S4',_'L',_9999.0)
MR_('S4',_'M',_1.0)
MR_('S4',_'M',_10.0)
MR_('S4',_'M',_100.0)
MR_('S4',_'M',_3.0)
MR_('S4',_'M',_50.0)
MR_('S4',_'M',_9999.0)
MR_('S5',_'H',_1.0)
MR_('S5',_'H',_10.0)
MR_('S5',_'H',_100.0)
MR_('S5',_'H',_3.0)
MR_('S5',_'H',_50.0)
MR_('S5',_'H',_9999.0)
MR_('S5',_'L',_1.0)
MR_('S5',_'L',_10.0)
MR_('S5',_'L',_100.0)
MR_('S5',_'L',_3.0)
MR_('S5',_'L',_50.0)
MR_('S5',_'L',_9999.0)
MR_('S5',_'M',_1.0)
MR_('S5',_'M',_10.0)
MR_('S5',_'M',_100.0)
MR_('S5',_'M',_3.0)
MR_('S5',_'M',_50.0)
MR_('S5',_'M',_9999.0)
MR_('S6',_'H',_1.0)
MR_('S6',_'H',_10.0)
MR_('S6',_'H',_100.0)
MR_('S6',_'H',_3.0)
MR_('S6',_'H',_50.0)
MR_('S6',_'H',_9999.0)
MR_('S6',_'L',_1.0)
MR_('S6',_'L',_10.0)
MR_('S6',_'L',_100.0)
MR_('S6',_'L',_3.0)
MR_('S6',_'L',_50.0)
MR_('S6',_'L',_9999.0)
MR_('S6',_'M',_1.0)
MR_('S6',_'M',_10.0)
MR_('S6',_'M',_100.0)
MR_('S6',_'M',_3.0)
MR_('S6',_'M',_50.0)
MR_('S6',_'M',_9999.0)
End
